p tw 100 13501 2 
1 3 
1 4 
1 5 
1 6 
1 7 
1 8 
1 9 
1 10 
1 11 
1 17 
1 21 
1 30 
1 31 
1 34 
1 41 
1 49 
1 51 
1 52 
1 61 
1 63 
1 71 
1 75 
1 81 
1 86 
1 91 
1 98 
2 3 
2 4 
2 5 
2 6 
2 7 
2 8 
2 9 
2 10 
2 12 
2 14 
2 22 
2 28 
2 32 
2 40 
2 41 
2 42 
2 52 
2 55 
2 62 
2 67 
2 72 
2 76 
2 82 
2 83 
2 92 
2 99 
3 4 
3 5 
3 6 
3 7 
3 8 
3 9 
3 10 
3 13 
3 15 
3 23 
3 24 
3 33 
3 36 
3 43 
3 47 
3 53 
3 58 
3 63 
3 70 
3 72 
3 73 
3 83 
3 89 
3 91 
3 93 
4 5 
4 6 
4 7 
4 8 
4 9 
4 10 
4 12 
4 14 
4 24 
4 29 
4 34 
4 35 
4 44 
4 48 
4 53 
4 54 
4 64 
4 66 
4 74 
4 80 
4 81 
4 84 
4 94 
4 97 
5 6 
5 7 
5 8 
5 9 
5 10 
5 13 
5 15 
5 21 
5 25 
5 35 
5 37 
5 45 
5 50 
5 54 
5 55 
5 62 
5 65 
5 75 
5 79 
5 85 
5 88 
5 95 
5 96 
6 7 
6 8 
6 9 
6 10 
6 16 
6 19 
6 22 
6 26 
6 36 
6 38 
6 43 
6 46 
6 51 
6 56 
6 65 
6 66 
6 74 
6 76 
6 86 
6 87 
6 96 
6 100 
7 8 
7 9 
7 10 
7 17 
7 18 
7 26 
7 27 
7 33 
7 37 
7 42 
7 47 
7 57 
7 60 
7 67 
7 69 
7 71 
7 77 
7 85 
7 87 
7 94 
7 97 
8 9 
8 10 
8 16 
8 18 
8 27 
8 28 
8 32 
8 38 
8 44 
8 48 
8 58 
8 59 
8 61 
8 68 
8 73 
8 78 
8 88 
8 90 
8 95 
8 98 
9 10 
9 19 
9 20 
9 23 
9 29 
9 31 
9 39 
9 45 
9 49 
9 56 
9 59 
9 68 
9 69 
9 77 
9 79 
9 84 
9 89 
9 92 
9 99 
10 11 
10 20 
10 25 
10 30 
10 39 
10 40 
10 46 
10 50 
10 57 
10 60 
10 64 
10 70 
10 78 
10 80 
10 82 
10 90 
10 93 
10 100 
11 12 
11 13 
11 14 
11 15 
11 16 
11 17 
11 18 
11 19 
11 20 
11 21 
11 25 
11 31 
11 39 
11 41 
11 46 
11 51 
11 57 
11 61 
11 64 
11 71 
11 78 
11 81 
11 82 
11 91 
11 93 
12 13 
12 14 
12 15 
12 16 
12 17 
12 18 
12 19 
12 20 
12 22 
12 29 
12 32 
12 35 
12 42 
12 48 
12 52 
12 53 
12 62 
12 66 
12 72 
12 80 
12 81 
12 82 
12 92 
12 97 
13 14 
13 15 
13 16 
13 17 
13 18 
13 19 
13 20 
13 21 
13 23 
13 33 
13 37 
13 43 
13 50 
13 53 
13 54 
13 62 
13 63 
13 73 
13 79 
13 83 
13 88 
13 93 
13 96 
14 15 
14 16 
14 17 
14 18 
14 19 
14 20 
14 24 
14 28 
14 34 
14 40 
14 41 
14 44 
14 54 
14 55 
14 64 
14 67 
14 74 
14 76 
14 83 
14 84 
14 94 
14 99 
15 16 
15 17 
15 18 
15 19 
15 20 
15 24 
15 25 
15 35 
15 36 
15 45 
15 47 
15 55 
15 58 
15 65 
15 70 
15 72 
15 75 
15 85 
15 89 
15 91 
15 95 
16 17 
16 18 
16 19 
16 20 
16 26 
16 27 
16 32 
16 36 
16 44 
16 46 
16 56 
16 59 
16 61 
16 66 
16 73 
16 76 
16 86 
16 90 
16 95 
16 96 
17 18 
17 19 
17 20 
17 27 
17 30 
17 34 
17 37 
17 47 
17 49 
17 52 
17 57 
17 63 
17 67 
17 75 
17 77 
17 86 
17 87 
17 97 
17 98 
18 19 
18 20 
18 26 
18 28 
18 33 
18 38 
18 42 
18 48 
18 58 
18 60 
18 68 
18 69 
18 71 
18 78 
18 85 
18 88 
18 94 
18 98 
19 20 
19 22 
19 29 
19 38 
19 39 
19 43 
19 49 
19 51 
19 59 
19 65 
19 69 
19 74 
19 79 
19 87 
19 89 
19 99 
19 100 
20 23 
20 30 
20 31 
20 40 
20 45 
20 50 
20 56 
20 60 
20 68 
20 70 
20 77 
20 80 
20 84 
20 90 
20 92 
20 100 
21 22 
21 23 
21 24 
21 25 
21 26 
21 27 
21 28 
21 29 
21 30 
21 31 
21 37 
21 41 
21 50 
21 51 
21 54 
21 61 
21 62 
21 71 
21 79 
21 81 
21 88 
21 91 
21 96 
22 23 
22 24 
22 25 
22 26 
22 27 
22 28 
22 29 
22 30 
22 32 
22 38 
22 42 
22 43 
22 51 
22 52 
22 62 
22 65 
22 72 
22 74 
22 82 
22 87 
22 92 
22 100 
23 24 
23 25 
23 26 
23 27 
23 28 
23 29 
23 30 
23 31 
23 33 
23 43 
23 45 
23 53 
23 56 
23 63 
23 68 
23 73 
23 77 
23 83 
23 84 
23 92 
23 93 
24 25 
24 26 
24 27 
24 28 
24 29 
24 30 
24 34 
24 36 
24 44 
24 47 
24 54 
24 58 
24 64 
24 70 
24 72 
24 74 
24 84 
24 89 
24 91 
24 94 
25 26 
25 27 
25 28 
25 29 
25 30 
25 35 
25 39 
25 45 
25 46 
25 55 
25 57 
25 64 
25 65 
25 75 
25 78 
25 82 
25 85 
25 93 
25 95 
26 27 
26 28 
26 29 
26 30 
26 33 
26 36 
26 42 
26 46 
26 56 
26 60 
26 66 
26 69 
26 71 
26 76 
26 85 
26 86 
26 94 
26 96 
27 28 
27 29 
27 30 
27 32 
27 37 
27 44 
27 47 
27 57 
27 59 
27 61 
27 67 
27 73 
27 77 
27 87 
27 90 
27 95 
27 97 
28 29 
28 30 
28 38 
28 40 
28 41 
28 48 
28 55 
28 58 
28 67 
28 68 
28 76 
28 78 
28 83 
28 88 
28 98 
28 99 
29 30 
29 35 
29 39 
29 48 
29 49 
29 53 
29 59 
29 66 
29 69 
29 79 
29 80 
29 81 
29 89 
29 97 
29 99 
30 34 
30 40 
30 49 
30 50 
30 52 
30 60 
30 63 
30 70 
30 75 
30 80 
30 86 
30 90 
30 98 
30 100 
31 32 
31 33 
31 34 
31 35 
31 36 
31 37 
31 38 
31 39 
31 40 
31 41 
31 45 
31 51 
31 56 
31 61 
31 68 
31 71 
31 77 
31 81 
31 84 
31 91 
31 92 
32 33 
32 34 
32 35 
32 36 
32 37 
32 38 
32 39 
32 40 
32 42 
32 44 
32 52 
32 59 
32 61 
32 62 
32 72 
32 73 
32 82 
32 90 
32 92 
32 95 
33 34 
33 35 
33 36 
33 37 
33 38 
33 39 
33 40 
33 42 
33 43 
33 53 
33 60 
33 63 
33 69 
33 71 
33 73 
33 83 
33 85 
33 93 
33 94 
34 35 
34 36 
34 37 
34 38 
34 39 
34 40 
34 44 
34 49 
34 52 
34 54 
34 63 
34 64 
34 74 
34 75 
34 84 
34 86 
34 94 
34 98 
35 36 
35 37 
35 38 
35 39 
35 40 
35 45 
35 48 
35 53 
35 55 
35 65 
35 66 
35 75 
35 80 
35 81 
35 85 
35 95 
35 97 
36 37 
36 38 
36 39 
36 40 
36 46 
36 47 
36 56 
36 58 
36 66 
36 70 
36 72 
36 76 
36 86 
36 89 
36 91 
36 96 
37 38 
37 39 
37 40 
37 47 
37 50 
37 54 
37 57 
37 62 
37 67 
37 77 
37 79 
37 87 
37 88 
37 96 
37 97 
38 39 
38 40 
38 43 
38 48 
38 51 
38 58 
38 65 
38 68 
38 74 
38 78 
38 87 
38 88 
38 98 
38 100 
39 40 
39 46 
39 49 
39 57 
39 59 
39 64 
39 69 
39 78 
39 79 
39 82 
39 89 
39 93 
39 99 
40 41 
40 50 
40 55 
40 60 
40 67 
40 70 
40 76 
40 80 
40 83 
40 90 
40 99 
40 100 
41 42 
41 43 
41 44 
41 45 
41 46 
41 47 
41 48 
41 49 
41 50 
41 51 
41 55 
41 61 
41 67 
41 71 
41 76 
41 81 
41 83 
41 91 
41 99 
42 43 
42 44 
42 45 
42 46 
42 47 
42 48 
42 49 
42 50 
42 52 
42 60 
42 62 
42 69 
42 71 
42 72 
42 82 
42 85 
42 92 
42 94 
43 44 
43 45 
43 46 
43 47 
43 48 
43 49 
43 50 
43 51 
43 53 
43 63 
43 65 
43 73 
43 74 
43 83 
43 87 
43 93 
43 100 
44 45 
44 46 
44 47 
44 48 
44 49 
44 50 
44 54 
44 59 
44 61 
44 64 
44 73 
44 74 
44 84 
44 90 
44 94 
44 95 
45 46 
45 47 
45 48 
45 49 
45 50 
45 55 
45 56 
45 65 
45 68 
45 75 
45 77 
45 84 
45 85 
45 92 
45 95 
46 47 
46 48 
46 49 
46 50 
46 56 
46 57 
46 64 
46 66 
46 76 
46 78 
46 82 
46 86 
46 93 
46 96 
47 48 
47 49 
47 50 
47 57 
47 58 
47 67 
47 70 
47 72 
47 77 
47 87 
47 89 
47 91 
47 97 
48 49 
48 50 
48 53 
48 58 
48 66 
48 68 
48 78 
48 80 
48 81 
48 88 
48 97 
48 98 
49 50 
49 52 
49 59 
49 63 
49 69 
49 75 
49 79 
49 86 
49 89 
49 98 
49 99 
50 54 
50 60 
50 62 
50 70 
50 79 
50 80 
50 88 
50 90 
50 96 
50 100 
51 52 
51 53 
51 54 
51 55 
51 56 
51 57 
51 58 
51 59 
51 60 
51 61 
51 65 
51 71 
51 74 
51 81 
51 87 
51 91 
51 100 
52 53 
52 54 
52 55 
52 56 
52 57 
52 58 
52 59 
52 60 
52 62 
52 63 
52 72 
52 75 
52 82 
52 86 
52 92 
52 98 
53 54 
53 55 
53 56 
53 57 
53 58 
53 59 
53 60 
53 63 
53 66 
53 73 
53 80 
53 81 
53 83 
53 93 
53 97 
54 55 
54 56 
54 57 
54 58 
54 59 
54 60 
54 62 
54 64 
54 74 
54 79 
54 84 
54 88 
54 94 
54 96 
55 56 
55 57 
55 58 
55 59 
55 60 
55 65 
55 67 
55 75 
55 76 
55 83 
55 85 
55 95 
55 99 
56 57 
56 58 
56 59 
56 60 
56 66 
56 68 
56 76 
56 77 
56 84 
56 86 
56 92 
56 96 
57 58 
57 59 
57 60 
57 64 
57 67 
57 77 
57 78 
57 82 
57 87 
57 93 
57 97 
58 59 
58 60 
58 68 
58 70 
58 72 
58 78 
58 88 
58 89 
58 91 
58 98 
59 60 
59 61 
59 69 
59 73 
59 79 
59 89 
59 90 
59 95 
59 99 
60 69 
60 70 
60 71 
60 80 
60 85 
60 90 
60 94 
60 100 
61 62 
61 63 
61 64 
61 65 
61 66 
61 67 
61 68 
61 69 
61 70 
61 71 
61 73 
61 81 
61 90 
61 91 
61 95 
62 63 
62 64 
62 65 
62 66 
62 67 
62 68 
62 69 
62 70 
62 72 
62 79 
62 82 
62 88 
62 92 
62 96 
63 64 
63 65 
63 66 
63 67 
63 68 
63 69 
63 70 
63 73 
63 75 
63 83 
63 86 
63 93 
63 98 
64 65 
64 66 
64 67 
64 68 
64 69 
64 70 
64 74 
64 78 
64 82 
64 84 
64 93 
64 94 
65 66 
65 67 
65 68 
65 69 
65 70 
65 74 
65 75 
65 85 
65 87 
65 95 
65 100 
66 67 
66 68 
66 69 
66 70 
66 76 
66 80 
66 81 
66 86 
66 96 
66 97 
67 68 
67 69 
67 70 
67 76 
67 77 
67 83 
67 87 
67 97 
67 99 
68 69 
68 70 
68 77 
68 78 
68 84 
68 88 
68 92 
68 98 
69 70 
69 71 
69 79 
69 85 
69 89 
69 94 
69 99 
70 72 
70 80 
70 89 
70 90 
70 91 
70 100 
71 72 
71 73 
71 74 
71 75 
71 76 
71 77 
71 78 
71 79 
71 80 
71 81 
71 85 
71 91 
71 94 
72 73 
72 74 
72 75 
72 76 
72 77 
72 78 
72 79 
72 80 
72 82 
72 89 
72 91 
72 92 
73 74 
73 75 
73 76 
73 77 
73 78 
73 79 
73 80 
73 83 
73 90 
73 93 
73 95 
74 75 
74 76 
74 77 
74 78 
74 79 
74 80 
74 84 
74 87 
74 94 
74 100 
75 76 
75 77 
75 78 
75 79 
75 80 
75 85 
75 86 
75 95 
75 98 
76 77 
76 78 
76 79 
76 80 
76 83 
76 86 
76 96 
76 99 
77 78 
77 79 
77 80 
77 84 
77 87 
77 92 
77 97 
78 79 
78 80 
78 82 
78 88 
78 93 
78 98 
79 80 
79 88 
79 89 
79 96 
79 99 
80 81 
80 90 
80 97 
80 100 
81 82 
81 83 
81 84 
81 85 
81 86 
81 87 
81 88 
81 89 
81 90 
81 91 
81 97 
82 83 
82 84 
82 85 
82 86 
82 87 
82 88 
82 89 
82 90 
82 92 
82 93 
83 84 
83 85 
83 86 
83 87 
83 88 
83 89 
83 90 
83 93 
83 99 
84 85 
84 86 
84 87 
84 88 
84 89 
84 90 
84 92 
84 94 
85 86 
85 87 
85 88 
85 89 
85 90 
85 94 
85 95 
86 87 
86 88 
86 89 
86 90 
86 96 
86 98 
87 88 
87 89 
87 90 
87 97 
87 100 
88 89 
88 90 
88 96 
88 98 
89 90 
89 91 
89 99 
90 95 
90 100 
91 92 
91 93 
91 94 
91 95 
91 96 
91 97 
91 98 
91 99 
91 100 
92 93 
92 94 
92 95 
92 96 
92 97 
92 98 
92 99 
92 100 
93 94 
93 95 
93 96 
93 97 
93 98 
93 99 
93 100 
94 95 
94 96 
94 97 
94 98 
94 99 
94 100 
95 96 
95 97 
95 98 
95 99 
95 100 
96 97 
96 98 
96 99 
96 100 
97 98 
97 99 
97 100 
98 99 
98 100 
99 100 
